Gurobi Optimizer version 9.1.0 build v9.1.0rc0 (linux64)
Thread count: 8 physical cores, 16 logical processors, using up to 16 threads
Optimize a model with 17696 rows, 16320 columns and 92780 nonzeros
Model fingerprint: 0xcaf3580d
Variable types: 0 continuous, 16320 integer (16320 binary)
Coefficient statistics:
  Matrix range     [1e+00, 1e+00]
  Objective range  [1e+01, 1e+04]
  Bounds range     [1e+00, 1e+00]
  RHS range        [1e+00, 1e+02]
Presolve removed 20 rows and 20 columns
Presolve time: 0.22s
Presolved: 17676 rows, 16300 columns, 92740 nonzeros
Variable types: 0 continuous, 16300 integer (16300 binary)
Found heuristic solution: objective 127082.00000

Concurrent LP optimizer: primal simplex, dual simplex, and barrier
Showing barrier log only...

Root barrier log...

Ordering time: 0.04s

Barrier statistics:
 Dense cols : 160
 AA' NZ     : 8.094e+04
 Factor NZ  : 3.691e+05 (roughly 17 MBytes of memory)
 Factor Ops : 1.799e+07 (less than 1 second per iteration)
 Threads    : 6

                  Objective                Residual
Iter       Primal          Dual         Primal    Dual     Compl     Time
   0   4.86970116e+06 -6.20638546e+04  3.99e+01 0.00e+00  5.66e+02     0s
   1   2.18972773e+05 -1.20425283e+06  7.30e-01 5.24e+02  3.94e+01     0s
   2   1.46289920e+05 -1.91383096e+05  8.41e-02 2.35e+02  7.65e+00     1s
   3   1.40727745e+05  2.64616343e+04  4.78e-02 7.03e+01  2.46e+00     1s
   4   1.39203098e+05  7.88541850e+04  4.33e-02 3.06e+01  1.24e+00     1s
   5   1.24631925e+05  1.00544574e+05  8.07e-03 1.13e+01  5.03e-01     1s
   6   1.18715886e+05  1.08919031e+05  3.30e-03 3.90e+00  2.02e-01     1s
   7   1.16798629e+05  1.10128023e+05  2.07e-03 2.91e+00  1.39e-01     1s
   8   1.15519149e+05  1.11879052e+05  1.27e-03 1.37e+00  7.48e-02     1s
   9   1.14584293e+05  1.12396921e+05  7.46e-04 8.35e-01  4.50e-02     1s
  10   1.14145585e+05  1.12625307e+05  5.07e-04 5.87e-01  3.13e-02     1s
  11   1.14005104e+05  1.12696591e+05  4.31e-04 5.08e-01  2.70e-02     1s
  12   1.13795826e+05  1.12794060e+05  3.18e-04 4.04e-01  2.07e-02     1s
  13   1.13706210e+05  1.12927811e+05  2.70e-04 2.77e-01  1.60e-02     1s
  14   1.13588016e+05  1.12998556e+05  2.11e-04 2.01e-01  1.20e-02     1s
  15   1.13514929e+05  1.13047296e+05  1.73e-04 1.46e-01  9.50e-03     1s
  16   1.13448980e+05  1.13074316e+05  1.40e-04 1.17e-01  7.60e-03     1s
  17   1.13383775e+05  1.13090003e+05  1.06e-04 9.67e-02  5.98e-03     1s
  18   1.13333377e+05  1.13108494e+05  8.09e-05 7.35e-02  4.58e-03     1s
  19   1.13286330e+05  1.13119292e+05  5.82e-05 6.03e-02  3.42e-03     1s
  20   1.13250568e+05  1.13129789e+05  4.06e-05 4.71e-02  2.49e-03     1s
  21   1.13231601e+05  1.13135838e+05  3.13e-05 3.90e-02  1.98e-03     1s
  22   1.13219848e+05  1.13147272e+05  2.56e-05 2.35e-02  1.48e-03     1s
  23   1.13207437e+05  1.13154916e+05  1.95e-05 1.41e-02  1.06e-03     1s
  24   1.13195932e+05  1.13155720e+05  1.43e-05 1.30e-02  8.18e-04     1s
  25   1.13187186e+05  1.13157537e+05  1.01e-05 1.07e-02  6.07e-04     1s
  26   1.13179070e+05  1.13160748e+05  6.15e-06 6.46e-03  3.75e-04     1s
  27   1.13174907e+05  1.13162378e+05  4.19e-06 4.40e-03  2.56e-04     1s
  28   1.13171696e+05  1.13163075e+05  2.72e-06 3.52e-03  1.78e-04     1s
  29   1.13169968e+05  1.13163606e+05  1.91e-06 2.73e-03  1.32e-04     1s
  30   1.13169490e+05  1.13164410e+05  1.70e-06 1.54e-03  1.03e-04     1s
  31   1.13167703e+05  1.13164858e+05  9.39e-07 9.51e-04  5.80e-05     1s
  32   1.13167100e+05  1.13165013e+05  6.74e-07 7.44e-04  4.27e-05     1s
  33   1.13166764e+05  1.13165102e+05  5.20e-07 6.29e-04  3.42e-05     1s
  34   1.13166365e+05  1.13165242e+05  3.42e-07 4.40e-04  2.31e-05     1s
  35   1.13166141e+05  1.13165322e+05  2.46e-07 3.51e-04  1.69e-05     1s
  36   1.13165703e+05  1.13165532e+05  4.76e-08 5.37e-05  3.49e-06     1s
  37   1.13165590e+05  1.13165538e+05  4.30e-09 4.60e-05  1.16e-06     1s
  38   1.13165582e+05  1.13165570e+05  1.79e-09 7.99e-06  2.76e-07     1s
  39   1.13165577e+05  1.13165576e+05  8.51e-11 4.10e-07  8.29e-09     1s

Barrier solved model in 39 iterations and 1.45 seconds
Optimal objective 1.13165577e+05


Solved with barrier

Root relaxation: objective 1.131656e+05, 1719 iterations, 1.30 seconds

    Nodes    |    Current Node    |     Objective Bounds      |     Work
 Expl Unexpl |  Obj  Depth IntInf | Incumbent    BestBd   Gap | It/Node Time

     0     0 113165.577    0 1475 127082.000 113165.577  11.0%     -    2s
H    0     0                    113798.00000 113165.577  0.56%     -    2s
H    0     0                    113738.00000 113165.577  0.50%     -    2s
H    0     0                    113737.00000 113165.577  0.50%     -    3s
     0     0 113176.486    0 1495 113737.000 113176.486  0.49%     -    4s
     0     0 113176.513    0 1499 113737.000 113176.513  0.49%     -    5s
     0     0 113176.554    0 1499 113737.000 113176.554  0.49%     -    5s
     0     0 113176.727    0 1369 113737.000 113176.727  0.49%     -    5s
     0     0 113176.930    0 1369 113737.000 113176.930  0.49%     -    5s
     0     0 113199.984    0 1716 113737.000 113199.984  0.47%     -    6s
     0     0 113201.674    0 1711 113737.000 113201.674  0.47%     -    7s
     0     0 113201.748    0 1707 113737.000 113201.748  0.47%     -    7s
     0     0 113201.761    0 1710 113737.000 113201.761  0.47%     -    7s
     0     0 113211.763    0 1713 113737.000 113211.763  0.46%     -    8s
     0     0 113212.449    0 1708 113737.000 113212.449  0.46%     -    8s
     0     0 113212.481    0 1709 113737.000 113212.481  0.46%     -    8s
     0     0 113212.481    0 1709 113737.000 113212.481  0.46%     -    8s
     0     0 113244.375    0 1716 113737.000 113244.375  0.43%     -   10s
     0     0 113244.375    0 1677 113737.000 113244.375  0.43%     -   10s
     0     0 113244.375    0 1709 113737.000 113244.375  0.43%     -   10s
     0     0 113244.375    0 1713 113737.000 113244.375  0.43%     -   10s
     0     0 113297.333    0 1792 113737.000 113297.333  0.39%     -   11s
     0     0 113297.400    0 1764 113737.000 113297.400  0.39%     -   11s
     0     0 113297.400    0 1768 113737.000 113297.400  0.39%     -   11s
     0     0 113362.977    0 1806 113737.000 113362.977  0.33%     -   12s
     0     0 113362.977    0 1799 113737.000 113362.977  0.33%     -   13s
H    0     2                    113736.00000 113362.977  0.33%     -   14s
     0     2 113362.977    0 1799 113736.000 113362.977  0.33%     -   14s
     1     4 113362.977    1 1613 113736.000 113362.977  0.33%  1011   15s
*   12     8               3    113586.00000 113362.977  0.20%  1068   17s
    32     6 113556.385    7 1488 113586.000 113485.000  0.09%   713   20s

Cutting planes:
  Gomory: 4
  Zero half: 78

Explored 129 nodes (32647 simplex iterations) in 22.25 seconds
Thread count was 16 (of 16 available processors)

Solution count 6: 113586 113736 113737 ... 127082

Optimal solution found (tolerance 1.00e-04)
Best objective 1.135860000000e+05, best bound 1.135780000000e+05, gap 0.0070%

User-callback calls 5959, time in user-callback 0.08 sec
['/opt/local/stow/gurobi910/linux64/lib/libgurobi91.so']
Optimal Result: runtime=22.25sec; objective=113586
Solution written to /autofs/unityaccount/cremi/mdeboute/Bureau/multi-period-flp/solution/instMulti_I20_J100_T8_1_result.txt
